100
128
14
16
60
3
2
28
6
47
53
33
35
20
39
48
30
9
27
27
24
10
40
26
21
44
25
46
34
14
27
9
22
22
42
25
10
9
55
14
21
31
38
13
53
2
5
28
25
14
13
25
8
19
60
36
39
51
16
24
48
13
51
50
16
26
27
51
16
61
11
3
43
14
1
30
61
33
56
24
45
40
34
1
60
49
57
55
1
16
64
64
16
39
2
48
52
32
44
39
64
60